RT is False
Default write of storage_offers_DA.csv just to have a file (but constraint should be inactive)
Reading model...
...model read.
creating competitive generators file...
...competitive generators recorded.
Loading data...
.. day-ahead data with real-time VRE data read.
Compiling instance...
...instance created.
Creating Offer Mitigation (model will solve as dispatch if TRUE)...
NOTE: storage offers will not be mitigated
...storage offer mitigation file created
Converting model to MPEC...
...converted
NOTE: initial MIP solve with only storage competitive to get feasible solution
Solving...

Welcome to IBM(R) ILOG(R) CPLEX(R) Interactive Optimizer 12.9.0.0
  with Simplex, Mixed Integer & Barrier Optimizers
5725-A06 5725-A29 5724-Y48 5724-Y49 5724-Y54 5724-Y55 5655-Y21
Copyright IBM Corp. 1988, 2019.  All Rights Reserved.

Type 'help' for a list of available commands.
Type 'help' followed by a command name for more
information on commands.

CPLEX> Logfile 'cplex.log' closed.
Logfile 'C:\Users\Luke\Desktop\test106\logs\tmpeuzojcd5.cplex.log' open.
CPLEX> New value for parallel optimization mode: -1
CPLEX> New value for mixed integer optimality gap tolerance: 0.01
CPLEX> New value for integrality tolerance: 1e-09
CPLEX> New value for feasibility tolerance: 0.1
CPLEX> New value for deterministic time limit in ticks: 100000
CPLEX> Problem 'C:\Users\Luke\Desktop\test106\logs\tmph4f9czdh.pyomo.lp' read.
Read time = 0.20 sec. (13.86 ticks)
CPLEX> Problem name         : C:\Users\Luke\Desktop\test106\logs\tmph4f9czdh.pyomo.lp
Objective sense      : Maximize
Variables            :   53321  [Nneg: 1,  Box: 21806,  Free: 4416,
                                 Binary: 27098]
Objective nonzeros   :    8980
Linear constraints   :  122164  [Less: 40983,  Greater: 58612,  Equal: 22569]
  Nonzeros           :  288505
  RHS nonzeros       :   66982

Variables            : Min LB: -5000.000        Max UB: 1000000.       
Objective nonzeros   : Min   : 0.2250000        Max   : 725.5083       
Linear constraints   :
  Nonzeros           : Min   : 0.2250000        Max   : 2910000.       
  RHS nonzeros       : Min   : 0.2250000        Max   : 3000000.       
CPLEX> CPXPARAM_Parallel                                -1
CPXPARAM_Simplex_Tolerances_Feasibility          0.10000000000000001
CPXPARAM_DetTimeLimit                            100000
CPXPARAM_MIP_Tolerances_MIPGap                   0.01
CPXPARAM_MIP_Tolerances_Integrality              1.0000000000000001e-09
Tried aggregator 3 times.
MIP Presolve eliminated 88050 rows and 18906 columns.
MIP Presolve added 3380 rows and 0 columns.
MIP Presolve modified 23588 coefficients.
Aggregator did 12885 substitutions.
Reduced MIP has 24609 rows, 20974 columns, and 68944 nonzeros.
Reduced MIP has 8300 binaries, 0 generals, 0 SOSs, and 0 indicators.
Presolve time = 0.25 sec. (173.28 ticks)
Probing fixed 435 vars, tightened 2851 bounds.
Probing time = 1.59 sec. (902.00 ticks)
Tried aggregator 2 times.
MIP Presolve eliminated 978 rows and 878 columns.
MIP Presolve modified 2190 coefficients.
Aggregator did 41 substitutions.
Reduced MIP has 23590 rows, 20055 columns, and 65972 nonzeros.
Reduced MIP has 7862 binaries, 0 generals, 0 SOSs, and 0 indicators.
Presolve time = 0.11 sec. (67.58 ticks)
Probing fixed 5 vars, tightened 9 bounds.
Probing time = 0.30 sec. (116.20 ticks)
Clique table members: 8210.
MIP emphasis: balance optimality and feasibility.
MIP search method: dynamic search.
Parallel mode: opportunistic, using up to 12 threads.
Root relaxation solution time = 0.33 sec. (436.77 ticks)

        Nodes                                         Cuts/
   Node  Left     Objective  IInf  Best Integer    Best Bound    ItCnt     Gap

      0     0    23797.6619   772                  23797.6619     2772         
      0     2    23786.2879    14                  23786.2879     2772         
Elapsed time = 8.53 sec. (4596.31 ticks, tree = 0.02 MB, solutions = 0)
*    99    41      integral     0    23786.2879    23786.2879     2791    0.00%

Root node processing (before b&c):
  Real time             =    8.17 sec. (4564.57 ticks)
Parallel b&c, 12 threads:
  Real time             =    0.83 sec. (211.17 ticks)
  Sync time (average)   =    0.10 sec.
  Wait time (average)   =    0.00 sec.
                          ------------
Total (root+branch&cut) =    9.00 sec. (4775.75 ticks)

Solution pool: 9 solutions saved.

MIP - Integer optimal solution:  Objective =  2.3786287902e+04
Solution time =    9.00 sec.  Iterations = 2828  Nodes = 134
Deterministic time = 4775.90 ticks  (530.66 ticks/sec)

CPLEX> Incumbent solution written to file 'C:\Users\Luke\Desktop\test106\logs\tmpeu4jnow8.cplex.sol'.
CPLEX> NOTE: no warmstart specified for MIP iteration, default behavior is true
NOTE: resolving with all competitive generators using storage-only solution to warmstart
Solving...

Welcome to IBM(R) ILOG(R) CPLEX(R) Interactive Optimizer 12.9.0.0
  with Simplex, Mixed Integer & Barrier Optimizers
5725-A06 5725-A29 5724-Y48 5724-Y49 5724-Y54 5724-Y55 5655-Y21
Copyright IBM Corp. 1988, 2019.  All Rights Reserved.

Type 'help' for a list of available commands.
Type 'help' followed by a command name for more
information on commands.

CPLEX> Logfile 'cplex.log' closed.
Logfile 'C:\Users\Luke\Desktop\test106\logs\tmprfm09otp.cplex.log' open.
CPLEX> New value for parallel optimization mode: -1
CPLEX> New value for mixed integer optimality gap tolerance: 0.01
CPLEX> New value for integrality tolerance: 1e-09
CPLEX> New value for feasibility tolerance: 0.1
CPLEX> New value for deterministic time limit in ticks: 100000
CPLEX> Problem 'C:\Users\Luke\Desktop\test106\logs\tmp94j01hnb.pyomo.lp' read.
Read time = 0.20 sec. (13.88 ticks)
CPLEX> MIP start file 'C:\Users\Luke\Desktop\test106\logs\tmpkh2wmvsf.cplex.mst' read.
CPLEX> Problem name         : C:\Users\Luke\Desktop\test106\logs\tmp94j01hnb.pyomo.lp
Objective sense      : Maximize
Variables            :   54041  [Nneg: 1,  Box: 22526,  Free: 4416,
                                 Binary: 27098]
Objective nonzeros   :    9676
Linear constraints   :  122164  [Less: 40983,  Greater: 58612,  Equal: 22569]
  Nonzeros           :  288505
  RHS nonzeros       :   66982

Variables            : Min LB: -5000.000        Max UB: 1000000.       
Objective nonzeros   : Min   : 0.2250000        Max   : 722.0000       
Linear constraints   :
  Nonzeros           : Min   : 0.2250000        Max   : 2910000.       
  RHS nonzeros       : Min   : 0.2250000        Max   : 3000000.       
CPLEX> CPXPARAM_Parallel                                -1
CPXPARAM_Simplex_Tolerances_Feasibility          0.10000000000000001
CPXPARAM_DetTimeLimit                            100000
CPXPARAM_MIP_Tolerances_MIPGap                   0.01
CPXPARAM_MIP_Tolerances_Integrality              1.0000000000000001e-09
Warning:  No solution found from 1 MIP starts.
Retaining values of one MIP start for possible repair.
Tried aggregator 3 times.
MIP Presolve eliminated 88050 rows and 19626 columns.
MIP Presolve added 3380 rows and 0 columns.
MIP Presolve modified 23588 coefficients.
Aggregator did 12885 substitutions.
Reduced MIP has 24609 rows, 20974 columns, and 68944 nonzeros.
Reduced MIP has 8300 binaries, 0 generals, 0 SOSs, and 0 indicators.
Presolve time = 0.23 sec. (173.64 ticks)
Probing fixed 435 vars, tightened 2851 bounds.
Probing time = 1.56 sec. (902.00 ticks)
Tried aggregator 2 times.
MIP Presolve eliminated 978 rows and 878 columns.
MIP Presolve modified 2190 coefficients.
Aggregator did 41 substitutions.
Reduced MIP has 23590 rows, 20055 columns, and 65972 nonzeros.
Reduced MIP has 7862 binaries, 0 generals, 0 SOSs, and 0 indicators.
Presolve time = 0.09 sec. (67.58 ticks)
Probing fixed 5 vars, tightened 9 bounds.
Probing time = 0.33 sec. (116.20 ticks)
Clique table members: 8210.
MIP emphasis: balance optimality and feasibility.
MIP search method: dynamic search.
Parallel mode: opportunistic, using up to 12 threads.
Root relaxation solution time = 0.28 sec. (198.45 ticks)

        Nodes                                         Cuts/
   Node  Left     Objective  IInf  Best Integer    Best Bound    ItCnt     Gap

      0     0    97617.1978  1671                  97617.1978     2845         
      0     0    95698.7481   786                   Cuts: 892     3232         
      0     0    95304.3141   657                   Cuts: 675     3433         
      0     0    95303.5509   617                   Cuts: 375     3520         
      0     0    95303.5509   601                   Cuts: 234     3551         
      0     0    95303.5509   576                   Cuts: 172     3585         
      0     0    95303.5509   564                   Cuts: 146     3603         
      0     0    95214.5082   540                   Cuts: 147     3621         
      0     0    95214.5082   534                   Cuts: 130     3632         
      0     0    95214.5082   530                   Cuts: 118     3638         
Repair heuristic found nothing.
      0     2    95214.5082   530                    Cuts: 10     3638         
Elapsed time = 13.13 sec. (6467.58 ticks, tree = 0.02 MB, solutions = 0)
    135    51    83169.5522   453                  93811.1986     4282         
    312   194    87599.3938   463                  93811.1986     5531         
    489   423    73089.5819   428                  93811.1986     6763         
    922   510    89619.8536   452                  93811.1986     6924         
   1309  1006    88214.4182   424                  93811.1986     7689         
   1544  1199    93286.1857   514                  93811.1986     7923         
   1828  1506  -257707.6516   289                  93811.1986     9162         
   2131  1868  -144113.2092   272                  93811.1986    14568         
   2552  2000  -188027.8395   247                  93811.1986    15093         
*  4069+ 2179                        64212.3933    93811.1986            46.10%
Elapsed time = 25.67 sec. (9478.39 ticks, tree = 17.65 MB, solutions = 1)
   4353  2563    84800.6202   270    64212.3933    93330.8770    23337   45.35%
   4767   263    88968.7482   237    64212.3933    93060.4197    24688   44.93%
   5198   547    82757.4636   208    64212.3933    93060.4197    27369   44.93%
   5408   839        cutoff          64212.3933    93060.4197    29108   44.93%
   6287  1245    82087.7069   125    64212.3933    93060.4197    30507   44.93%
   7036  2119    82055.6212   127    64212.3933    93060.4197    32536   44.93%
   7595  2510    82366.9091   254    64212.3933    93060.4197    33716   44.93%
   8089  3114    82759.0657    80    64212.3933    93060.4197    36579   44.93%
   8528  3359    91754.5174   291    64212.3933    93060.4197    37915   44.93%
   9063  3762    88669.6539   242    64212.3933    93060.4197    41789   44.93%
Elapsed time = 92.67 sec. (31369.90 ticks, tree = 40.79 MB, solutions = 1)
   9633  3977    88526.0720   152    64212.3933    93060.4197    43470   44.93%
  10201  4521    74784.7597    81    64212.3933    93060.4197    47719   44.93%
  10613  4889    74173.9130    83    64212.3933    93060.4197    50078   44.93%
  10908  4799    88526.0019   102    64212.3933    93060.4197    49168   44.93%
  11146  5694    72940.0801    74    64212.3933    93060.4197    54164   44.93%
  11263  5165    73851.7636    89    64212.3933    93060.4197    51703   44.93%
  11325  5698    infeasible          64212.3933    93060.4197    54216   44.93%
  11406  5972    73851.7636    83    64212.3933    93060.4197    57673   44.93%
  11490  5820    infeasible          64212.3933    93060.4197    54889   44.93%
  11555  6105    infeasible          64212.3933    93060.4197    59708   44.93%
Elapsed time = 117.14 sec. (40976.91 ticks, tree = 69.33 MB, solutions = 1)
  11609  5972    infeasible          64212.3933    93060.4197    56552   44.93%
  11668  5983    82759.0657    62    64212.3933    93060.4197    57609   44.93%
  11747  6201    84227.3242   246    64212.3933    93060.4197    61139   44.93%
  11845  6234    90945.9635   279    64212.3933    93060.4197    61437   44.93%
  11987  6325    89328.6368   266    64212.3933    93060.4197    64812   44.93%
  12096  6351    91763.1175   292    64212.3933    93060.4197    65022   44.93%
  12325  6421    80926.0017   218    64212.3933    93060.4197    65437   44.93%
  12726  6614    67693.1051   189    64212.3933    93060.4197    66699   44.93%
  13074  7120    83932.4615   243    64212.3933    93060.4197    72664   44.93%
  13489  7381    67218.0437   219    64212.3933    93060.4197    75487   44.93%
Elapsed time = 143.03 sec. (50593.71 ticks, tree = 84.37 MB, solutions = 1)
  13989  7422    67043.9616   205    64212.3933    93060.4197    75686   44.93%
  14479  7170    91539.4303   277    64212.3933    93060.4197    72692   44.93%
  14955  7508    70217.7588   212    64212.3933    93060.4197    74449   44.93%
  15502  7302        cutoff          64212.3933    93060.4197    73478   44.93%
  16012  7444    69559.5075   115    64212.3933    93060.4197    73910   44.93%
  16505  7672    75607.9573   226    64212.3933    93060.4197    75044   44.93%
  17001  7550    66608.5479   168    64212.3933    93060.4197    74352   44.93%
  17534  8622    66421.0417   159    64212.3933    93060.4197    83991   44.93%
  18116  9729    88201.6535   239    64212.3933    93060.4197    88373   44.93%
  18661  7769    65294.9955    81    64212.3933    93060.4197    76938   44.93%
Elapsed time = 183.56 sec. (60149.30 ticks, tree = 88.90 MB, solutions = 1)
  19086 10354    65392.8373   186    64212.3933    93060.4197    91576   44.93%
  19605  7849    66049.1414   186    64212.3933    93060.4197    77278   44.93%
  20119 10489    87906.6563   235    64212.3933    93060.4197    91919   44.93%
  20675 11334    80179.1264   105    64212.3933    93060.4197    95224   44.93%
  21212 10024    65527.4237   163    64212.3933    93060.4197    89599   44.93%
  21696 10092    65527.4237    98    64212.3933    93060.4197    89725   44.93%
  22161 11422    65247.4267   203    64212.3933    93060.4197    96911   44.93%
  22575  8754    69136.6733   216    64212.3933    93060.4197    81436   44.93%
  22971 12806    88995.5096   237    64212.3933    93060.4197   102615   44.93%
  23441  9194    65399.8280   188    64212.3933    93060.4197    86597   44.93%
Elapsed time = 217.88 sec. (69703.68 ticks, tree = 105.57 MB, solutions = 1)
  23916 11623    68651.1392   219    64212.3933    93060.4197    97560   44.93%
  24351 11675    67383.7231   179    64212.3933    93060.4197    97934   44.93%
  24726 11743    67383.7231   109    64212.3933    93060.4197    98082   44.93%
  25182 13842    66050.7194   197    64212.3933    93060.4197   107218   44.93%
  25654 10580        cutoff          64212.3933    93060.4197    91189   44.93%
  26123 11133    80922.6257   107    64212.3933    93060.4197    94936   44.93%
  26497  8116    89329.3364   250    64212.3933    93060.4197    81469   44.93%
  26920 13300    66049.1414   182    64212.3933    93060.4197   104183   44.93%
  27383 12007    86119.5954    71    64212.3933    93060.4197   101309   44.93%
  27762  9697    80405.3843   166    64212.3933    93060.4197    88576   44.93%
Elapsed time = 238.50 sec. (79254.79 ticks, tree = 111.63 MB, solutions = 1)
  28067  9929    65905.2702   165    64212.3933    93060.4197    89057   44.93%
  28400 12114    81145.6570   218    64212.3933    93060.4197    99675   44.93%
  28693 14361    85372.6500   238    64212.3933    93060.4197   108891   44.93%
  28899 13576    86109.1254   152    64212.3933    93060.4197   105489   44.93%
  29158 12314    80638.6948    86    64212.3933    93060.4197   100184   44.93%
  29373 14546    67426.9501    84    64212.3933    93060.4197   109381   44.93%
* 29512 13939      integral     0    67426.9500    93060.4197   109417   38.02%
  29549 10449    67777.8672    76    67426.9500    93060.4197    91840   38.02%
  29658 13818    67093.0987   126    67426.9500    93060.4197   106315   38.02%
  29744 12747    80925.8034    87    67426.9500    93060.4197   103306   38.02%
  29815 13916    81337.8331   218    67426.9500    93060.4197   106866   38.02%
Elapsed time = 246.17 sec. (88843.28 ticks, tree = 161.45 MB, solutions = 2)
  29886 13965    75857.7021   199    67426.9500    93060.4197   106967   38.02%
  29971 14040    75857.7021   126    67426.9500    93060.4197   107114   38.02%
  30059 14109    66816.8644    83    67426.9500    93060.4197   107334   38.02%
  30081 12745    67777.8672    75    67426.9500    93060.4197   103157   38.02%
  30095 12745    67777.8672    76    67426.9500    93060.4197   103158   38.02%
  30103 13635    infeasible          67426.9500    93060.4197   106778   38.02%
  30111 13637    80968.5578    85    67426.9500    93060.4197   106814   38.02%
  30118 13639    81141.3630    84    67426.9500    93060.4197   106846   38.02%
  30123 13628    infeasible          67426.9500    93060.4197   106586   38.02%
  30126 13638    infeasible          67426.9500    93060.4197   106786   38.02%
Elapsed time = 248.81 sec. (99770.76 ticks, tree = 157.60 MB, solutions = 2)

GUB cover cuts applied:  4
Clique cuts applied:  66
Cover cuts applied:  48
Implied bound cuts applied:  615
Flow cuts applied:  5592
Mixed integer rounding cuts applied:  10950
Zero-half cuts applied:  2
Gomory fractional cuts applied:  160

Root node processing (before b&c):
  Real time             =   12.61 sec. (6425.92 ticks)
Parallel b&c, 12 threads:
  Real time             =  236.28 sec. (94419.25 ticks)
  Sync time (average)   =    0.79 sec.
  Wait time (average)   =    0.08 sec.
                          ------------
Total (root+branch&cut) =  248.89 sec. (100845.17 ticks)

Solution pool: 2 solutions saved.

MIP - Deterministic time limit exceeded, integer feasible:  Objective =  6.7426949974e+04
Current MIP best bound =  9.3060419672e+04 (gap = 25633.5, 38.02%)
Solution time =  248.89 sec.  Iterations = 149126  Nodes = 30129 (16320)
Deterministic time = 100845.32 ticks  (405.18 ticks/sec)

CPLEX> Incumbent solution written to file 'C:\Users\Luke\Desktop\test106\logs\tmpxr3b7r1b.cplex.sol'.
CPLEX> Exporting results... 
